235 300 34 36 15 32 36 36 34 42 22 24 15 33 42 27 26 23 17 21 31 26 33 31 24 30 40 22 49 49 46 27 50 29 15 14 12 43 40 37 36 13 10 43 36 44 19 13 16 26 25 40 43 50 20 18 31 11 30 29 10 28 49 11 47 13 15 50 48 47 38 33 50 40 25 38 34 36 41 42 11 17 31 46 18 44 14 40 45 36 18 45 13 16 48 12 21 12 13 18 10 41 43 12 30 19 40 15 45 32 48 47 42 30 44 50 23 48 39 18 34 50 14 39 17 14 41 31 18 46 39 19 36 34 23 18 43 12 23 40 36 22 36 27 43 29 29 15 29 19 25 14 18 32 43 28 36 36 49 44 31 39 14 19 22 27 27 17 31 42 47 19 16 34 36 49 14 14 15 33 26 33 37 34 14 32 13 42 17 11 37 38 41 44 47 14 20 25 23 44 19 19 12 25 43 40 25 48 47 32 32 22 14 19 46 20 41 11 13 50 12 41 37 45 34 36 50 46 12 24 39 23 34 43 40 28 33 